<number of tasks>
50

<cycle time>
1000

<order strength>
0.597


<task times>
1 94
2 126
3 86
4 102
5 46
6 194
7 78
8 58
9 174
10 116
11 207
12 38
13 126
14 28
15 26
16 259
17 48
18 256
19 54
20 152
21 188
22 63
23 24
24 232
25 177
26 157
27 332
28 37
29 111
30 42
31 134
32 156
33 45
34 49
35 94
36 130
37 119
38 68
39 135
40 104
41 78
42 150
43 63
44 107
45 140
46 68
47 34
48 261
49 161
50 98

<precedence relations>
1,5
2,6
2,15
3,7
3,8
4,8
4,9
5,11
6,12
7,13
8,10
8,15
8,16
9,14
9,15
9,16
10,17
11,18
12,20
13,21
14,19
15,20
15,21
16,20
16,21
17,22
18,25
19,23
20,24
20,25
20,26
20,27
21,24
21,25
21,26
21,27
22,30
23,29
24,28
24,30
24,31
24,34
25,30
25,31
25,34
26,30
26,31
27,30
27,31
27,34
28,32
29,34
30,39
31,33
31,35
32,36
33,37
34,38
34,40
34,42
35,39
35,40
36,42
37,42
38,41
39,42
39,43
39,45
40,44
40,48
40,50
41,46
42,46
42,48
43,47
46,49
46,50
48,49

<end>
